51 51
0 1 2
1 2 1
2 3 4
3 4 1
4 5 3
5 6 4
6 7 6
7 8 3
8 9 7
9 10 4
10 11 8
11 12 5
12 13 10
13 14 7
14 15 8
15 16 8
16 17 8
17 18 5
18 19 4
19 20 8
20 21 4
21 22 5
22 24 9
24 30 26
30 32 9
32 34 10
34 36 7
36 37 4
37 38 6
38 39 5
39 40 6
40 41 5
41 43 11
43 45 11
45 47 8
47 48 5
48 50 12
50 49 8
49 46 13
46 44 12
44 42 9
42 35 35
35 33 9
33 31 10
31 29 9
29 28 5
28 27 4
27 26 3
26 25 6
25 23 6
23 0 110
